(set-logic QF_S)
(declare-fun var0 () String)
(declare-fun var1 () Int)
(declare-fun var2 () String)
(declare-fun var3 () Int)
(declare-fun var4 () String)
(declare-fun var5 () Int)
(declare-fun var6 () String)
(declare-fun var7 () Int)
(declare-fun var8 () Bool)
(assert (str.suffixof (str.substr var0 var1 44) (str.at var2 var3)))
(assert (<= (str.len (str.at var4 var5)) (str.len (str.at var6 var7))))
(assert (not var8))
(assert (str.suffixof var2 var4))
(check-sat)